unsat
((set-logic NIA)
(declare-fun s!1 () Int)
(declare-fun r!2 () Int)
(declare-fun x!0 () Int)
(proof
(let ((?x643 (* (- 1) s!1)))
 (let ((?x1204 (* r!2 r!2)))
 (let ((?x374 (* 3 ?x1204)))
 (let ((?x253 (* r00 r00)))
 (let ((?x267 (* (- 3) ?x253)))
 (let ((?x533 (+ s00 ?x267 ?x374 ?x643)))
 (let (($x468 (<= ?x533 0)))
 (let (($x544 (= ?x533 0)))
 (let ((?x1519 (* x!0 x!0)))
 (let ((?x592 (* 4 ?x1519)))
 (let ((?x1495 (* s!1 s!1 s!1)))
 (let ((?x1374 (* s!1 s!1)))
 (let ((?x379 (* 4 ?x1374)))
 (let ((?x359 (* 6 r!2)))
 (let ((?x1599 (+ 3 s!1 ?x359)))
 (let ((?x370 (+ 1 r!2)))
 (let ((?x1687 (+ (* (- 24) (* x!0 s!1 r!2)) (* (- 4) (* x!0 s!1 s!1 r!2)) (* 15 (* x!0 x!0 r!2 r!2)) (* s!1 s!1 s!1 r!2 r!2) (* x!0 x!0 s!1) (* (- 2) (* x!0 s!1 s!1)) (* 6 (* s!1 s!1 r!2 r!2 r!2)) (* 15 (* s!1 s!1 r!2 r!2)) (* 2 (* x!0 x!0 s!1 r!2)) (* (- 30) (* x!0 s!1 r!2 r!2)) (* (- 2) (* x!0 s!1 s!1 r!2 r!2)) (* 12 (* x!0 x!0 r!2)) (* x!0 x!0 s!1 r!2 r!2) (* ?x370 ?x370 ?x1599 ?x1599 ?x1599) ?x379 (* (- 12) (* x!0 s!1 r!2 r!2 r!2)) (* 12 (* s!1 s!1 r!2)) ?x1495 ?x592 (* 2 (* s!1 s!1 s!1 r!2)) (* 6 (* x!0 x!0 r!2 r!2 r!2)) (* (- 8) (* x!0 s!1)))))
 (let ((?x809 (* ?x1687 ?x533)))
 (let (($x1212 (= ?x809 0)))
 (let (($x275 (not $x1212)))
 (let ((?x1298 (* x00 x00)))
 (let ((?x770 (* 108 ?x1298)))
 (let ((?x1438 (* (- 9) s!1)))
 (let ((?x1136 (* s00 s00 s00)))
 (let ((?x1061 (* 16 ?x1136)))
 (let ((?x834 (* r00 r00 r00 x00)))
 (let ((?x1587 (* (- 432) ?x834)))
 (let ((?x757 (* s00 x00)))
 (let ((?x1390 (* (- 108) ?x757)))
 (let ((?x599 (* s00 r00 r00)))
 (let ((?x984 (* (- 36) ?x599)))
 (let ((?x543 (* s00 s00)))
 (let ((?x585 (* 51 ?x543)))
 (let ((?x474 (* r00 x00)))
 (let ((?x331 (* 108 ?x474)))
 (let ((?x440 (* r00 r00 s!1)))
 (let ((?x879 (* 36 ?x440)))
 (let ((?x137 (* 9 s00)))
 (let ((?x403 (+ ?x137 (* (- 54) (* s00 r00)) ?x879 (* 216 (* s00 r00 x00)) ?x331 (* (- 12) (* s00 s!1 s!1)) (* (- 216) (* s00 r00 x!0)) ?x585 ?x984 (* (- 108) (* s00 s00 r00)) (* 108 (* s00 r00 s!1)) (* (- 36) (* s00 s00 r00 r00)) (* 108 (* x00 s!1)) (* 36 (* r00 r00 s!1 s!1)) ?x1390 (* (- 216) (* x00 x!0)) ?x1587 (* 432 (* r00 r00 r00 x!0)) (* (- 66) (* s00 s!1)) (* 216 (* s00 r00 r00 r00)) ?x1061 ?x1438 ?x770 (* 15 ?x1374) (* (- 4) ?x1495) (* (- 108) (* r00 x!0)) (* 108 ?x1519) (* 108 (* s00 x!0)) (* (- 216) (* r00 r00 r00 s!1)) (* 54 (* r00 s!1)) (* (- 108) (* x!0 s!1)))))
 (let ((?x829 (* r00 r00 x00)))
 (let ((?x1285 (* 36 ?x829)))
 (let ((?x618 (* (- 6) ?x757)))
 (let ((?x1694 (* 15 ?x543)))
 (let ((?x1607 (* 54 ?x474)))
 (let ((?x1530 (+ ?x137 (* (- 24) (* s00 r00)) ?x879 ?x1607 ?x1694 (* 36 (* r00 x00 r!2)) (* 24 (* s!1 r!2)) ?x984 (* 2 (* s00 s00 r00)) (* 2 (* s00 r00 s!1)) (* 6 (* x00 s!1)) (* 4 (* s00 s00 r!2)) ?x618 (* (- 54) (* x!0 r!2)) (* (- 2) (* s00 s!1 r!2)) ?x1285 (* (- 36) (* r00 r00 x!0)) (* (- 4) (* r00 s!1 s!1)) (* (- 12) (* s00 s!1)) (* (- 24) (* s00 r!2)) (* 54 (* x00 r!2)) (* (- 36) (* r00 x!0 r!2)) ?x1438 (* (- 3) ?x1374) (* (- 2) (* s!1 s!1 r!2)) (* (- 54) (* r00 x!0)) (* 6 (* s00 x!0)) (* 24 (* r00 s!1)) (* (- 6) (* x!0 s!1)))))
 (let ((?x1191 (* (- 3) s!1)))
 (let ((?x1603 (* 4 ?x543)))
 (let ((?x1647 (* 18 ?x474)))
 (let ((?x44 (* 3 s00)))
 (let ((?x605 (+ ?x44 (* (- 9) (* s00 r00)) (* (- 6) (* r00 s!1 r!2)) (* 6 ?x440) ?x1647 ?x1603 (* 9 (* s!1 r!2)) (* (- 6) ?x599) (* (- 18) (* x!0 r!2)) (* (- 2) (* s00 s!1)) (* (- 9) (* s00 r!2)) (* 18 (* x00 r!2)) ?x1191 (* (- 2) ?x1374) (* (- 18) (* r00 x!0)) (* 6 (* s00 r00 r!2)) (* 9 (* r00 s!1)))))
 (let ((?x1200 (* 3 r!2)))
 (let ((?x1198 (* 6 x!0)))
 (let ((?x421 (* r00 r00 r00)))
 (let ((?x422 (* 12 ?x421)))
 (let ((?x378 (* s00 r00)))
 (let ((?x456 (* (- 6) ?x378)))
 (let ((?x453 (* (- 6) x00)))
 (let ((?x452 (* (- 3) r00)))
 (let ((?x1354 (+ ?x44 ?x452 ?x453 ?x456 ?x422 ?x1198 (* 2 (* s!1 r!2)) (* (- 12) (* r00 r00 r!2)) (* 4 (* s00 r!2)) ?x1191 ?x1200)))
 (let (($x817 (and $x544 (= ?x1354 0) (= ?x605 0) (= ?x1530 0) (= ?x403 0) $x275)))
 (let ((?x532 (+ 3 ?x359 s!1)))
 (let ((?x638 (+ ?x379 ?x1495 (* 12 (* r!2 s!1 s!1)) (* (- 8) (* s!1 x!0)) ?x592 (* s!1 x!0 x!0) (* 2 (* r!2 s!1 x!0 x!0)) (* r!2 r!2 s!1 x!0 x!0) (* 15 (* r!2 r!2 s!1 s!1)) (* 6 (* r!2 r!2 r!2 s!1 s!1)) (* 2 (* r!2 s!1 s!1 s!1)) (* r!2 r!2 s!1 s!1 s!1) (* (- 24) (* r!2 s!1 x!0)) (* (- 30) (* r!2 r!2 s!1 x!0)) (* (- 12) (* r!2 r!2 r!2 s!1 x!0)) (* (- 2) (* s!1 s!1 x!0)) (* (- 4) (* r!2 s!1 s!1 x!0)) (* (- 2) (* r!2 r!2 s!1 s!1 x!0)) (* 12 (* r!2 x!0 x!0)) (* 15 (* r!2 r!2 x!0 x!0)) (* 6 (* r!2 r!2 r!2 x!0 x!0)) (* ?x370 ?x370 ?x532 ?x532 ?x532))))
 (let ((?x1328 (* (- 108) ?x1298)))
 (let ((?x1327 (* (- 16) ?x1136)))
 (let ((?x1008 (* s00 r00 r00 r00)))
 (let ((?x1323 (* (- 216) ?x1008)))
 (let ((?x835 (* 432 ?x834)))
 (let ((?x1081 (* 108 ?x757)))
 (let ((?x683 (* s00 s00 r00 r00)))
 (let ((?x684 (* 36 ?x683)))
 (let ((?x620 (* s00 s00 r00)))
 (let ((?x964 (* 108 ?x620)))
 (let ((?x952 (* 36 ?x599)))
 (let ((?x1317 (* (- 51) ?x543)))
 (let ((?x1387 (* s!1 r00 r00)))
 (let ((?x1359 (* (- 36) ?x1387)))
 (let ((?x1314 (* (- 108) ?x474)))
 (let ((?x465 (* s00 r00 x00)))
 (let ((?x1313 (* (- 216) ?x465)))
 (let ((?x472 (* 54 ?x378)))
 (let ((?x939 (* (- 9) s00)))
 (let ((?x1402 (* 9 s!1)))
 (let ((?x958 (+ ?x1402 ?x939 ?x472 ?x1313 ?x1314 (* (- 15) ?x1374) ?x1359 ?x1317 (* (- 108) (* x!0 s00)) (* 108 (* x!0 r00)) (* 216 (* s!1 r00 r00 r00)) ?x952 ?x964 (* 66 (* s!1 s00)) (* (- 54) (* s!1 r00)) (* (- 108) (* s!1 x00)) ?x684 (* (- 108) (* s!1 s00 r00)) (* 4 ?x1495) ?x1081 (* 108 (* s!1 x!0)) (* (- 108) ?x1519) ?x835 (* 12 (* s!1 s!1 s00)) ?x1323 (* (- 432) (* x!0 r00 r00 r00)) (* 216 (* x!0 s00 r00)) (* (- 36) (* s!1 s!1 r00 r00)) ?x1327 (* 216 (* x!0 x00)) ?x1328)))
 (let ((?x842 (* (- 36) ?x829)))
 (let ((?x758 (* 6 ?x757)))
 (let ((?x648 (* (- 2) ?x620)))
 (let ((?x868 (* (- 15) ?x543)))
 (let ((?x503 (* (- 54) ?x474)))
 (let ((?x516 (* 24 ?x378)))
 (let ((?x1128 (+ ?x1402 ?x939 (* (- 24) (* r!2 s!1)) (* 24 (* r!2 s00)) ?x516 ?x503 (* 3 ?x1374) (* 54 (* r!2 x!0)) (* 36 (* r!2 x!0 r00)) ?x1359 ?x868 (* (- 6) (* x!0 s00)) (* 54 (* x!0 r00)) ?x952 (* 4 (* s!1 s!1 r00)) (* (- 54) (* r!2 x00)) ?x648 (* 12 (* s!1 s00)) (* (- 24) (* s!1 r00)) (* (- 6) (* s!1 x00)) (* (- 2) (* s!1 s00 r00)) ?x758 (* 2 (* r!2 s!1 s!1)) (* 6 (* s!1 x!0)) (* (- 4) (* r!2 s00 s00)) ?x842 (* 2 (* r!2 s!1 s00)) (* (- 36) (* r!2 r00 x00)) (* 36 (* x!0 r00 r00)))))
 (let ((?x600 (* 6 ?x599)))
 (let ((?x556 (* (- 4) ?x543)))
 (let ((?x488 (* (- 18) ?x474)))
 (let ((?x493 (* 9 ?x378)))
 (let ((?x330 (* (- 3) s00)))
 (let ((?x1226 (+ (* 3 s!1) ?x330 (* (- 9) (* r!2 s!1)) (* 9 (* r!2 s00)) ?x493 ?x488 (* 2 ?x1374) (* 18 (* r!2 x!0)) (* 6 (* r!2 s!1 r00)) (* (- 6) ?x1387) ?x556 (* 18 (* x!0 r00)) ?x600 (* (- 18) (* r!2 x00)) (* 2 (* s!1 s00)) (* (- 9) (* s!1 r00)) (* (- 6) (* r!2 s00 r00)))))
 (let ((?x486 (+ ?x1200 ?x1191 ?x1198 ?x44 ?x452 ?x453 (* 2 (* r!2 s!1)) (* (- 12) (* r!2 r00 r00)) (* 4 (* r!2 s00)) ?x456 ?x422)))
 (let (($x525 (and (= (+ s!1 (* (- 1) s00) (* (- 3) ?x1204) (* 3 ?x253)) 0) (= ?x486 0) (= ?x1226 0) (= ?x1128 0) (= ?x958 0) (not (= (* ?x638 (+ ?x643 s00 ?x374 ?x267)) 0)))))
 (let (($x630 (exists ((r Int) (s Int) (x Int) )(! (let ((?x253 (* r00 r00)))
 (let ((?x267 (* (- 3) ?x253)))
 (let ((?x241 (* r r)))
 (let ((?x242 (* 3 ?x241)))
 (let ((?x232 (* (- 1) s)))
 (let ((?x211 (* 6 r)))
 (let ((?x1335 (+ 3 ?x211 s)))
 (let ((?x1368 (+ 1 r)))
 (let ((?x1716 (* ?x1368 ?x1368 ?x1335 ?x1335 ?x1335)))
 (let ((?x1656 (* 6 (* r r r x x))))
 (let ((?x1675 (* 15 (* r r x x))))
 (let ((?x1674 (* 12 (* r x x))))
 (let ((?x1673 (* (- 2) (* r r s s x))))
 (let ((?x1672 (* (- 4) (* r s s x))))
 (let ((?x1671 (* (- 2) (* s s x))))
 (let ((?x1670 (* (- 12) (* r r r s x))))
 (let ((?x1669 (* (- 30) (* r r s x))))
 (let ((?x1667 (* (- 24) (* r s x))))
 (let ((?x1520 (* r r s s s)))
 (let ((?x1666 (* 2 (* r s s s))))
 (let ((?x1510 (* 6 (* r r r s s))))
 (let ((?x1665 (* 15 (* r r s s))))
 (let ((?x1486 (* r r s x x)))
 (let ((?x1676 (* 2 (* r s x x))))
 (let ((?x1483 (* s x x)))
 (let ((?x806 (* x x)))
 (let ((?x1772 (* 4 ?x806)))
 (let ((?x761 (* r s s)))
 (let ((?x1664 (* 12 ?x761)))
 (let ((?x755 (* s s s)))
 (let ((?x522 (+ (* 4 (* s s)) ?x755 ?x1664 (* (- 8) (* s x)) ?x1772 ?x1483 ?x1676 ?x1486 ?x1665 ?x1510 ?x1666 ?x1520 ?x1667 ?x1669 ?x1670 ?x1671 ?x1672 ?x1673 ?x1674 ?x1675 ?x1656 ?x1716)))
 (let ((?x1298 (* x00 x00)))
 (let ((?x1328 (* (- 108) ?x1298)))
 (let ((?x1136 (* s00 s00 s00)))
 (let ((?x1327 (* (- 16) ?x1136)))
 (let ((?x1008 (* s00 r00 r00 r00)))
 (let ((?x1323 (* (- 216) ?x1008)))
 (let ((?x834 (* r00 r00 r00 x00)))
 (let ((?x835 (* 432 ?x834)))
 (let ((?x757 (* s00 x00)))
 (let ((?x1081 (* 108 ?x757)))
 (let ((?x683 (* s00 s00 r00 r00)))
 (let ((?x684 (* 36 ?x683)))
 (let ((?x620 (* s00 s00 r00)))
 (let ((?x964 (* 108 ?x620)))
 (let ((?x599 (* s00 r00 r00)))
 (let ((?x952 (* 36 ?x599)))
 (let ((?x543 (* s00 s00)))
 (let ((?x1317 (* (- 51) ?x543)))
 (let ((?x517 (* s r00 r00)))
 (let ((?x816 (* (- 36) ?x517)))
 (let ((?x474 (* r00 x00)))
 (let ((?x1314 (* (- 108) ?x474)))
 (let ((?x465 (* s00 r00 x00)))
 (let ((?x1313 (* (- 216) ?x465)))
 (let ((?x378 (* s00 r00)))
 (let ((?x472 (* 54 ?x378)))
 (let ((?x939 (* (- 9) s00)))
 (let ((?x143 (* 9 s)))
 (let ((?x1329 (+ ?x143 ?x939 ?x472 ?x1313 ?x1314 (* (- 15) (* s s)) ?x816 ?x1317 (* (- 108) (* x s00)) (* 108 (* x r00)) (* 216 (* s r00 r00 r00)) ?x952 ?x964 (* 66 (* s s00)) (* (- 54) (* s r00)) (* (- 108) (* s x00)) ?x684 (* (- 108) (* s s00 r00)) (* 4 ?x755) ?x1081 (* 108 (* s x)) (* (- 108) ?x806) ?x835 (* 12 (* s s s00)) ?x1323 (* (- 432) (* x r00 r00 r00)) (* 216 (* x s00 r00)) (* (- 36) (* s s r00 r00)) ?x1327 (* 216 (* x x00)) ?x1328)))
 (let (($x1330 (= ?x1329 0)))
 (let ((?x829 (* r00 r00 x00)))
 (let ((?x842 (* (- 36) ?x829)))
 (let ((?x758 (* 6 ?x757)))
 (let ((?x648 (* (- 2) ?x620)))
 (let ((?x868 (* (- 15) ?x543)))
 (let ((?x497 (* s s)))
 (let ((?x521 (* 3 ?x497)))
 (let ((?x503 (* (- 54) ?x474)))
 (let ((?x516 (* 24 ?x378)))
 (let ((?x1031 (+ ?x143 ?x939 (* (- 24) (* r s)) (* 24 (* r s00)) ?x516 ?x503 ?x521 (* 54 (* r x)) (* 36 (* r x r00)) ?x816 ?x868 (* (- 6) (* x s00)) (* 54 (* x r00)) ?x952 (* 4 (* s s r00)) (* (- 54) (* r x00)) ?x648 (* 12 (* s s00)) (* (- 24) (* s r00)) (* (- 6) (* s x00)) (* (- 2) (* s s00 r00)) ?x758 (* 2 ?x761) (* 6 (* s x)) (* (- 4) (* r s00 s00)) ?x842 (* 2 (* r s s00)) (* (- 36) (* r r00 x00)) (* 36 (* x r00 r00)))))
 (let (($x1036 (= ?x1031 0)))
 (let ((?x600 (* 6 ?x599)))
 (let ((?x556 (* (- 4) ?x543)))
 (let ((?x498 (* 2 ?x497)))
 (let ((?x488 (* (- 18) ?x474)))
 (let ((?x493 (* 9 ?x378)))
 (let ((?x330 (* (- 3) s00)))
 (let ((?x47 (* 3 s)))
 (let ((?x697 (+ ?x47 ?x330 (* (- 9) (* r s)) (* 9 (* r s00)) ?x493 ?x488 ?x498 (* 18 (* r x)) (* 6 (* r s r00)) (* (- 6) ?x517) ?x556 (* 18 (* x r00)) ?x600 (* (- 18) (* r x00)) (* 2 (* s s00)) (* (- 9) (* s r00)) (* (- 6) (* r s00 r00)))))
 (let (($x704 (= ?x697 0)))
 (let ((?x421 (* r00 r00 r00)))
 (let ((?x422 (* 12 ?x421)))
 (let ((?x456 (* (- 6) ?x378)))
 (let ((?x453 (* (- 6) x00)))
 (let ((?x452 (* (- 3) r00)))
 (let ((?x44 (* 3 s00)))
 (let ((?x56 (* 6 x)))
 (let ((?x451 (* (- 3) s)))
 (let ((?x43 (* 3 r)))
 (let ((?x457 (+ ?x43 ?x451 ?x56 ?x44 ?x452 ?x453 (* 2 (* r s)) (* (- 12) (* r r00 r00)) (* 4 (* r s00)) ?x456 ?x422)))
 (let (($x458 (= ?x457 0)))
 (let (($x286 (= (+ s (* (- 1) s00) (* (- 3) ?x241) (* 3 ?x253)) 0)))
 (and $x286 $x458 $x704 $x1036 $x1330 (not (= (* ?x522 (+ ?x232 s00 ?x242 ?x267)) 0)))))))))))))))))))))))))))))))))))))))))))))))))))))))))))))))))))))))))))))))))))))))))))))))) :qid k!35))
 ))
 (let (($x1591 (exists ((r Int) (s Int) (x Int) )(! (let ((?x253 (* r00 r00)))
 (let ((?x267 (* (- 3) ?x253)))
 (let ((?x232 (* (- 1) s)))
 (let ((?x1549 (+ (- 3) s00 ?x232 (* (- 6) r) (* 3 (* (+ 1 r) (+ 1 r))) ?x267)))
 (let ((?x211 (* 6 r)))
 (let ((?x924 (+ 3 s ?x211)))
 (let ((?x1368 (+ 1 r)))
 (let ((?x1654 (+ (* ?x1368 ?x1368 (+ x ?x232) (+ x ?x232) ?x924) (* (+ x ?x232) (+ x ?x232)) (* ?x1368 ?x1368 ?x924 ?x924 ?x924))))
 (let (($x1701 (not (= (* ?x1654 ?x1549) 0))))
 (let ((?x1298 (* x00 x00)))
 (let ((?x770 (* 108 ?x1298)))
 (let ((?x1683 (* (- 9) s)))
 (let ((?x560 (* r00 r00 s00)))
 (let ((?x270 (* (- 36) ?x560)))
 (let ((?x137 (* 9 s00)))
 (let ((?x543 (* s00 s00)))
 (let ((?x585 (* 51 ?x543)))
 (let ((?x435 (* r00 r00 s)))
 (let ((?x1451 (* 36 ?x435)))
 (let ((?x1136 (* s00 s00 s00)))
 (let ((?x1061 (* 16 ?x1136)))
 (let ((?x757 (* s00 x00)))
 (let ((?x1390 (* (- 108) ?x757)))
 (let ((?x834 (* r00 r00 r00 x00)))
 (let ((?x1587 (* (- 432) ?x834)))
 (let ((?x474 (* r00 x00)))
 (let ((?x331 (* 108 ?x474)))
 (let ((?x808 (+ (* 216 (* r00 s00 x00)) ?x331 (* (- 54) (* r00 s00)) (* 15 (* s s)) (* (- 216) (* r00 r00 r00 s)) (* (- 36) (* r00 r00 s00 s00)) (* (- 4) (* s s s)) (* 108 (* x x)) ?x1587 (* (- 12) (* s00 s s)) (* 108 (* s00 x)) (* (- 108) (* r00 s00 s00)) (* 216 (* r00 r00 r00 s00)) (* 108 (* x00 s)) (* 432 (* r00 r00 r00 x)) (* (- 66) (* s00 s)) (* 108 (* r00 s00 s)) ?x1390 (* (- 216) (* r00 s00 x)) (* 36 (* r00 r00 s s)) ?x1061 (* (- 108) (* x s)) ?x1451 ?x585 (* (- 108) (* r00 x)) ?x137 ?x270 ?x1683 (* 54 (* r00 s)) (* (- 216) (* x00 x)) ?x770)))
 (let (($x828 (= ?x808 0)))
 (let ((?x1694 (* 15 ?x543)))
 (let ((?x829 (* r00 r00 x00)))
 (let ((?x1285 (* 36 ?x829)))
 (let ((?x618 (* (- 6) ?x757)))
 (let ((?x1607 (* 54 ?x474)))
 (let ((?x1429 (+ (* 24 (* s r)) ?x1607 (* (- 36) (* r00 x r)) (* (- 24) (* r00 s00)) (* (- 3) (* s s)) (* (- 54) (* x r)) (* 6 (* s00 x)) (* (- 4) (* r00 s s)) (* 2 (* r00 s00 s00)) (* 6 (* x00 s)) (* (- 12) (* s00 s)) (* 2 (* r00 s00 s)) ?x618 (* (- 2) (* s s r)) (* (- 6) (* x s)) (* 4 (* s00 s00 r)) ?x1451 ?x1285 ?x1694 (* (- 2) (* s00 s r)) (* 36 (* r00 x00 r)) (* (- 54) (* r00 x)) ?x137 ?x270 (* 54 (* x00 r)) ?x1683 (* (- 24) (* s00 r)) (* 24 (* r00 s)) (* (- 36) (* r00 r00 x)))))
 (let ((?x451 (* (- 3) s)))
 (let ((?x44 (* 3 s00)))
 (let ((?x1603 (* 4 ?x543)))
 (let ((?x1647 (* 18 ?x474)))
 (let ((?x1565 (+ (* 9 (* s r)) ?x1647 (* (- 9) (* r00 s00)) (* (- 2) (* s s)) (* (- 18) (* x r)) (* (- 6) (* r00 s r)) (* 6 ?x435) ?x1603 (* (- 18) (* r00 x)) ?x44 (* (- 6) ?x560) (* 18 (* x00 r)) ?x451 (* (- 9) (* s00 r)) (* (- 2) (* s00 s)) (* 9 (* r00 s)) (* 6 (* r00 s00 r)))))
 (let ((?x421 (* r00 r00 r00)))
 (let ((?x422 (* 12 ?x421)))
 (let ((?x453 (* (- 6) x00)))
 (let ((?x56 (* 6 x)))
 (let ((?x452 (* (- 3) r00)))
 (let ((?x43 (* 3 r)))
 (let ((?x1576 (+ (* 2 (* s r)) (* (- 12) (* r00 r00 r)) ?x43 ?x44 ?x451 ?x452 (* 4 (* s00 r)) (* (- 6) (* r00 s00)) ?x56 ?x453 ?x422)))
 (let (($x504 (= (+ s00 ?x232 (* 3 (* r r)) ?x267) 0)))
 (and $x504 (= ?x1576 0) (= ?x1565 0) (= ?x1429 0) $x828 $x1701))))))))))))))))))))))))))))))))))))))))))))))))) :qid k!35))
 ))
 (let ((?x631 (lambda ((r Int) (s Int) (x Int) )(let ((?x253 (* r00 r00)))
 (let ((?x267 (* (- 3) ?x253)))
 (let ((?x241 (* r r)))
 (let ((?x242 (* 3 ?x241)))
 (let ((?x232 (* (- 1) s)))
 (let ((?x211 (* 6 r)))
 (let ((?x1335 (+ 3 ?x211 s)))
 (let ((?x1368 (+ 1 r)))
 (let ((?x1716 (* ?x1368 ?x1368 ?x1335 ?x1335 ?x1335)))
 (let ((?x1656 (* 6 (* r r r x x))))
 (let ((?x1675 (* 15 (* r r x x))))
 (let ((?x1674 (* 12 (* r x x))))
 (let ((?x1673 (* (- 2) (* r r s s x))))
 (let ((?x1672 (* (- 4) (* r s s x))))
 (let ((?x1671 (* (- 2) (* s s x))))
 (let ((?x1670 (* (- 12) (* r r r s x))))
 (let ((?x1669 (* (- 30) (* r r s x))))
 (let ((?x1667 (* (- 24) (* r s x))))
 (let ((?x1520 (* r r s s s)))
 (let ((?x1666 (* 2 (* r s s s))))
 (let ((?x1510 (* 6 (* r r r s s))))
 (let ((?x1665 (* 15 (* r r s s))))
 (let ((?x1486 (* r r s x x)))
 (let ((?x1676 (* 2 (* r s x x))))
 (let ((?x1483 (* s x x)))
 (let ((?x806 (* x x)))
 (let ((?x1772 (* 4 ?x806)))
 (let ((?x761 (* r s s)))
 (let ((?x1664 (* 12 ?x761)))
 (let ((?x755 (* s s s)))
 (let ((?x522 (+ (* 4 (* s s)) ?x755 ?x1664 (* (- 8) (* s x)) ?x1772 ?x1483 ?x1676 ?x1486 ?x1665 ?x1510 ?x1666 ?x1520 ?x1667 ?x1669 ?x1670 ?x1671 ?x1672 ?x1673 ?x1674 ?x1675 ?x1656 ?x1716)))
 (let ((?x1298 (* x00 x00)))
 (let ((?x1328 (* (- 108) ?x1298)))
 (let ((?x1136 (* s00 s00 s00)))
 (let ((?x1327 (* (- 16) ?x1136)))
 (let ((?x1008 (* s00 r00 r00 r00)))
 (let ((?x1323 (* (- 216) ?x1008)))
 (let ((?x834 (* r00 r00 r00 x00)))
 (let ((?x835 (* 432 ?x834)))
 (let ((?x757 (* s00 x00)))
 (let ((?x1081 (* 108 ?x757)))
 (let ((?x683 (* s00 s00 r00 r00)))
 (let ((?x684 (* 36 ?x683)))
 (let ((?x620 (* s00 s00 r00)))
 (let ((?x964 (* 108 ?x620)))
 (let ((?x599 (* s00 r00 r00)))
 (let ((?x952 (* 36 ?x599)))
 (let ((?x543 (* s00 s00)))
 (let ((?x1317 (* (- 51) ?x543)))
 (let ((?x517 (* s r00 r00)))
 (let ((?x816 (* (- 36) ?x517)))
 (let ((?x474 (* r00 x00)))
 (let ((?x1314 (* (- 108) ?x474)))
 (let ((?x465 (* s00 r00 x00)))
 (let ((?x1313 (* (- 216) ?x465)))
 (let ((?x378 (* s00 r00)))
 (let ((?x472 (* 54 ?x378)))
 (let ((?x939 (* (- 9) s00)))
 (let ((?x143 (* 9 s)))
 (let ((?x1329 (+ ?x143 ?x939 ?x472 ?x1313 ?x1314 (* (- 15) (* s s)) ?x816 ?x1317 (* (- 108) (* x s00)) (* 108 (* x r00)) (* 216 (* s r00 r00 r00)) ?x952 ?x964 (* 66 (* s s00)) (* (- 54) (* s r00)) (* (- 108) (* s x00)) ?x684 (* (- 108) (* s s00 r00)) (* 4 ?x755) ?x1081 (* 108 (* s x)) (* (- 108) ?x806) ?x835 (* 12 (* s s s00)) ?x1323 (* (- 432) (* x r00 r00 r00)) (* 216 (* x s00 r00)) (* (- 36) (* s s r00 r00)) ?x1327 (* 216 (* x x00)) ?x1328)))
 (let (($x1330 (= ?x1329 0)))
 (let ((?x829 (* r00 r00 x00)))
 (let ((?x842 (* (- 36) ?x829)))
 (let ((?x758 (* 6 ?x757)))
 (let ((?x648 (* (- 2) ?x620)))
 (let ((?x868 (* (- 15) ?x543)))
 (let ((?x497 (* s s)))
 (let ((?x521 (* 3 ?x497)))
 (let ((?x503 (* (- 54) ?x474)))
 (let ((?x516 (* 24 ?x378)))
 (let ((?x1031 (+ ?x143 ?x939 (* (- 24) (* r s)) (* 24 (* r s00)) ?x516 ?x503 ?x521 (* 54 (* r x)) (* 36 (* r x r00)) ?x816 ?x868 (* (- 6) (* x s00)) (* 54 (* x r00)) ?x952 (* 4 (* s s r00)) (* (- 54) (* r x00)) ?x648 (* 12 (* s s00)) (* (- 24) (* s r00)) (* (- 6) (* s x00)) (* (- 2) (* s s00 r00)) ?x758 (* 2 ?x761) (* 6 (* s x)) (* (- 4) (* r s00 s00)) ?x842 (* 2 (* r s s00)) (* (- 36) (* r r00 x00)) (* 36 (* x r00 r00)))))
 (let (($x1036 (= ?x1031 0)))
 (let ((?x600 (* 6 ?x599)))
 (let ((?x556 (* (- 4) ?x543)))
 (let ((?x498 (* 2 ?x497)))
 (let ((?x488 (* (- 18) ?x474)))
 (let ((?x493 (* 9 ?x378)))
 (let ((?x330 (* (- 3) s00)))
 (let ((?x47 (* 3 s)))
 (let ((?x697 (+ ?x47 ?x330 (* (- 9) (* r s)) (* 9 (* r s00)) ?x493 ?x488 ?x498 (* 18 (* r x)) (* 6 (* r s r00)) (* (- 6) ?x517) ?x556 (* 18 (* x r00)) ?x600 (* (- 18) (* r x00)) (* 2 (* s s00)) (* (- 9) (* s r00)) (* (- 6) (* r s00 r00)))))
 (let (($x704 (= ?x697 0)))
 (let ((?x421 (* r00 r00 r00)))
 (let ((?x422 (* 12 ?x421)))
 (let ((?x456 (* (- 6) ?x378)))
 (let ((?x453 (* (- 6) x00)))
 (let ((?x452 (* (- 3) r00)))
 (let ((?x44 (* 3 s00)))
 (let ((?x56 (* 6 x)))
 (let ((?x451 (* (- 3) s)))
 (let ((?x43 (* 3 r)))
 (let ((?x457 (+ ?x43 ?x451 ?x56 ?x44 ?x452 ?x453 (* 2 (* r s)) (* (- 12) (* r r00 r00)) (* 4 (* r s00)) ?x456 ?x422)))
 (let (($x458 (= ?x457 0)))
 (let (($x286 (= (+ s (* (- 1) s00) (* (- 3) ?x241) (* 3 ?x253)) 0)))
 (let (($x508 (and $x286 $x458 $x704 $x1036 $x1330 (not (= (* ?x522 (+ ?x232 s00 ?x242 ?x267)) 0)))))
 (let ((?x924 (+ 3 s ?x211)))
 (let ((?x1654 (+ (* ?x1368 ?x1368 (+ x ?x232) (+ x ?x232) ?x924) (* (+ x ?x232) (+ x ?x232)) (* ?x1368 ?x1368 ?x924 ?x924 ?x924))))
 (let ((?x1652 (* ?x1654 (+ (- 3) s00 ?x232 (* (- 6) r) (* 3 (* ?x1368 ?x1368)) ?x267))))
 (let (($x1701 (not (= ?x1652 0))))
 (let ((?x770 (* 108 ?x1298)))
 (let ((?x1683 (* (- 9) s)))
 (let ((?x560 (* r00 r00 s00)))
 (let ((?x270 (* (- 36) ?x560)))
 (let ((?x137 (* 9 s00)))
 (let ((?x585 (* 51 ?x543)))
 (let ((?x435 (* r00 r00 s)))
 (let ((?x1451 (* 36 ?x435)))
 (let ((?x1061 (* 16 ?x1136)))
 (let ((?x1390 (* (- 108) ?x757)))
 (let ((?x1587 (* (- 432) ?x834)))
 (let ((?x331 (* 108 ?x474)))
 (let ((?x808 (+ (* 216 (* r00 s00 x00)) ?x331 (* (- 54) (* r00 s00)) (* 15 ?x497) (* (- 216) (* r00 r00 r00 s)) (* (- 36) (* r00 r00 s00 s00)) (* (- 4) ?x755) (* 108 ?x806) ?x1587 (* (- 12) (* s00 s s)) (* 108 (* s00 x)) (* (- 108) (* r00 s00 s00)) (* 216 (* r00 r00 r00 s00)) (* 108 (* x00 s)) (* 432 (* r00 r00 r00 x)) (* (- 66) (* s00 s)) (* 108 (* r00 s00 s)) ?x1390 (* (- 216) (* r00 s00 x)) (* 36 (* r00 r00 s s)) ?x1061 (* (- 108) (* x s)) ?x1451 ?x585 (* (- 108) (* r00 x)) ?x137 ?x270 ?x1683 (* 54 (* r00 s)) (* (- 216) (* x00 x)) ?x770)))
 (let (($x828 (= ?x808 0)))
 (let ((?x1694 (* 15 ?x543)))
 (let ((?x1285 (* 36 ?x829)))
 (let ((?x618 (* (- 6) ?x757)))
 (let ((?x1607 (* 54 ?x474)))
 (let ((?x1429 (+ (* 24 (* s r)) ?x1607 (* (- 36) (* r00 x r)) (* (- 24) (* r00 s00)) (* (- 3) ?x497) (* (- 54) (* x r)) (* 6 (* s00 x)) (* (- 4) (* r00 s s)) (* 2 (* r00 s00 s00)) (* 6 (* x00 s)) (* (- 12) (* s00 s)) (* 2 (* r00 s00 s)) ?x618 (* (- 2) (* s s r)) (* (- 6) (* x s)) (* 4 (* s00 s00 r)) ?x1451 ?x1285 ?x1694 (* (- 2) (* s00 s r)) (* 36 (* r00 x00 r)) (* (- 54) (* r00 x)) ?x137 ?x270 (* 54 (* x00 r)) ?x1683 (* (- 24) (* s00 r)) (* 24 (* r00 s)) (* (- 36) (* r00 r00 x)))))
 (let ((?x1603 (* 4 ?x543)))
 (let ((?x1647 (* 18 ?x474)))
 (let ((?x1565 (+ (* 9 (* s r)) ?x1647 (* (- 9) (* r00 s00)) (* (- 2) ?x497) (* (- 18) (* x r)) (* (- 6) (* r00 s r)) (* 6 ?x435) ?x1603 (* (- 18) (* r00 x)) ?x44 (* (- 6) ?x560) (* 18 (* x00 r)) ?x451 (* (- 9) (* s00 r)) (* (- 2) (* s00 s)) (* 9 (* r00 s)) (* 6 (* r00 s00 r)))))
 (let ((?x1576 (+ (* 2 (* s r)) (* (- 12) (* r00 r00 r)) ?x43 ?x44 ?x451 ?x452 (* 4 (* s00 r)) (* (- 6) (* r00 s00)) ?x56 ?x453 ?x422)))
 (let (($x504 (= (+ s00 ?x232 ?x242 ?x267) 0)))
 (let (($x1432 (and $x504 (= ?x1576 0) (= ?x1565 0) (= ?x1429 0) $x828 $x1701)))
 (rewrite (= $x1432 $x508))))))))))))))))))))))))))))))))))))))))))))))))))))))))))))))))))))))))))))))))))))))))))))))))))))))))))))))))))))))))))))))
 ))
 (let (($x940 (exists ((r Int) (s Int) (x Int) )(! (let ((?x253 (* r00 r00)))
 (let ((?x267 (* (- 3) ?x253)))
 (let ((?x232 (* (- 1) s)))
 (let ((?x1549 (+ (- 3) s00 ?x232 (* (- 6) r) (* 3 (* (+ 1 r) (+ 1 r))) ?x267)))
 (let ((?x211 (* 6 r)))
 (let ((?x924 (+ 3 s ?x211)))
 (let ((?x1368 (+ 1 r)))
 (let ((?x1654 (+ (* ?x1368 ?x1368 (+ x ?x232) (+ x ?x232) ?x924) (* (+ x ?x232) (+ x ?x232)) (* ?x1368 ?x1368 ?x924 ?x924 ?x924))))
 (let (($x1701 (not (= (* ?x1654 ?x1549) 0))))
 (let ((?x1298 (* x00 x00)))
 (let ((?x770 (* 108 ?x1298)))
 (let ((?x1683 (* (- 9) s)))
 (let ((?x560 (* r00 r00 s00)))
 (let ((?x270 (* (- 36) ?x560)))
 (let ((?x137 (* 9 s00)))
 (let ((?x543 (* s00 s00)))
 (let ((?x585 (* 51 ?x543)))
 (let ((?x435 (* r00 r00 s)))
 (let ((?x1451 (* 36 ?x435)))
 (let ((?x1136 (* s00 s00 s00)))
 (let ((?x1061 (* 16 ?x1136)))
 (let ((?x757 (* s00 x00)))
 (let ((?x1390 (* (- 108) ?x757)))
 (let ((?x834 (* r00 r00 r00 x00)))
 (let ((?x1587 (* (- 432) ?x834)))
 (let ((?x474 (* r00 x00)))
 (let ((?x331 (* 108 ?x474)))
 (let ((?x808 (+ (* 216 (* r00 s00 x00)) ?x331 (* (- 54) (* r00 s00)) (* 15 (* s s)) (* (- 216) (* r00 r00 r00 s)) (* (- 36) (* r00 r00 s00 s00)) (* (- 4) (* s s s)) (* 108 (* x x)) ?x1587 (* (- 12) (* s00 s s)) (* 108 (* s00 x)) (* (- 108) (* r00 s00 s00)) (* 216 (* r00 r00 r00 s00)) (* 108 (* x00 s)) (* 432 (* r00 r00 r00 x)) (* (- 66) (* s00 s)) (* 108 (* r00 s00 s)) ?x1390 (* (- 216) (* r00 s00 x)) (* 36 (* r00 r00 s s)) ?x1061 (* (- 108) (* x s)) ?x1451 ?x585 (* (- 108) (* r00 x)) ?x137 ?x270 ?x1683 (* 54 (* r00 s)) (* (- 216) (* x00 x)) ?x770)))
 (let (($x828 (= ?x808 0)))
 (let ((?x143 (* 9 s)))
 (let ((?x939 (* (- 9) s00)))
 (let ((?x868 (* (- 15) ?x543)))
 (let ((?x829 (* r00 r00 x00)))
 (let ((?x842 (* (- 36) ?x829)))
 (let ((?x758 (* 6 ?x757)))
 (let ((?x497 (* s s)))
 (let ((?x521 (* 3 ?x497)))
 (let ((?x503 (* (- 54) ?x474)))
 (let ((?x1419 (+ (* (- 24) (* s r)) ?x503 (* 36 (* r00 x r)) (* 24 (* r00 s00)) ?x521 (* 54 (* x r)) (* (- 6) (* s00 x)) (* 4 (* r00 s s)) (* (- 2) (* r00 s00 s00)) (* (- 6) (* x00 s)) (* 12 (* s00 s)) (* (- 2) (* r00 s00 s)) ?x758 (* 2 (* s s r)) (* 6 (* x s)) (* (- 4) (* s00 s00 r)) (* (- 36) ?x435) ?x842 ?x868 (* 2 (* s00 s r)) (* (- 36) (* r00 x00 r)) (* 54 (* r00 x)) ?x939 (* 36 ?x560) (* (- 54) (* x00 r)) ?x143 (* 24 (* s00 r)) (* (- 24) (* r00 s)) (* 36 (* r00 r00 x)))))
 (let ((?x47 (* 3 s)))
 (let ((?x330 (* (- 3) s00)))
 (let ((?x556 (* (- 4) ?x543)))
 (let ((?x498 (* 2 ?x497)))
 (let ((?x488 (* (- 18) ?x474)))
 (let ((?x1162 (+ (* (- 9) (* s r)) ?x488 (* 9 (* r00 s00)) ?x498 (* 18 (* x r)) (* 6 (* r00 s r)) (* (- 6) ?x435) ?x556 (* 18 (* r00 x)) ?x330 (* 6 ?x560) (* (- 18) (* x00 r)) ?x47 (* 9 (* s00 r)) (* 2 (* s00 s)) (* (- 9) (* r00 s)) (* (- 6) (* r00 s00 r)))))
 (let ((?x59 (* 6 x00)))
 (let ((?x48 (* 3 r00)))
 (let ((?x301 (* (- 3) r)))
 (let ((?x969 (+ (* (- 2) (* s r)) (* 12 (* r00 r00 r)) ?x301 ?x330 ?x47 ?x48 (* (- 4) (* s00 r)) (* 6 (* r00 s00)) (* (- 6) x) ?x59 (* (- 12) (* r00 r00 r00)))))
 (let (($x504 (= (+ s00 ?x232 (* 3 (* r r)) ?x267) 0)))
 (and $x504 (= ?x969 0) (= ?x1162 0) (= ?x1419 0) $x828 $x1701))))))))))))))))))))))))))))))))))))))))))))))))))) :qid k!35))
 ))
 (let ((?x1431 (lambda ((r Int) (s Int) (x Int) )(let ((?x253 (* r00 r00)))
 (let ((?x267 (* (- 3) ?x253)))
 (let ((?x232 (* (- 1) s)))
 (let ((?x1549 (+ (- 3) s00 ?x232 (* (- 6) r) (* 3 (* (+ 1 r) (+ 1 r))) ?x267)))
 (let ((?x211 (* 6 r)))
 (let ((?x924 (+ 3 s ?x211)))
 (let ((?x1368 (+ 1 r)))
 (let ((?x1654 (+ (* ?x1368 ?x1368 (+ x ?x232) (+ x ?x232) ?x924) (* (+ x ?x232) (+ x ?x232)) (* ?x1368 ?x1368 ?x924 ?x924 ?x924))))
 (let (($x1701 (not (= (* ?x1654 ?x1549) 0))))
 (let ((?x1298 (* x00 x00)))
 (let ((?x770 (* 108 ?x1298)))
 (let ((?x1683 (* (- 9) s)))
 (let ((?x560 (* r00 r00 s00)))
 (let ((?x270 (* (- 36) ?x560)))
 (let ((?x137 (* 9 s00)))
 (let ((?x543 (* s00 s00)))
 (let ((?x585 (* 51 ?x543)))
 (let ((?x435 (* r00 r00 s)))
 (let ((?x1451 (* 36 ?x435)))
 (let ((?x1136 (* s00 s00 s00)))
 (let ((?x1061 (* 16 ?x1136)))
 (let ((?x757 (* s00 x00)))
 (let ((?x1390 (* (- 108) ?x757)))
 (let ((?x834 (* r00 r00 r00 x00)))
 (let ((?x1587 (* (- 432) ?x834)))
 (let ((?x474 (* r00 x00)))
 (let ((?x331 (* 108 ?x474)))
 (let ((?x808 (+ (* 216 (* r00 s00 x00)) ?x331 (* (- 54) (* r00 s00)) (* 15 (* s s)) (* (- 216) (* r00 r00 r00 s)) (* (- 36) (* r00 r00 s00 s00)) (* (- 4) (* s s s)) (* 108 (* x x)) ?x1587 (* (- 12) (* s00 s s)) (* 108 (* s00 x)) (* (- 108) (* r00 s00 s00)) (* 216 (* r00 r00 r00 s00)) (* 108 (* x00 s)) (* 432 (* r00 r00 r00 x)) (* (- 66) (* s00 s)) (* 108 (* r00 s00 s)) ?x1390 (* (- 216) (* r00 s00 x)) (* 36 (* r00 r00 s s)) ?x1061 (* (- 108) (* x s)) ?x1451 ?x585 (* (- 108) (* r00 x)) ?x137 ?x270 ?x1683 (* 54 (* r00 s)) (* (- 216) (* x00 x)) ?x770)))
 (let (($x828 (= ?x808 0)))
 (let ((?x1694 (* 15 ?x543)))
 (let ((?x829 (* r00 r00 x00)))
 (let ((?x1285 (* 36 ?x829)))
 (let ((?x618 (* (- 6) ?x757)))
 (let ((?x1607 (* 54 ?x474)))
 (let ((?x1429 (+ (* 24 (* s r)) ?x1607 (* (- 36) (* r00 x r)) (* (- 24) (* r00 s00)) (* (- 3) (* s s)) (* (- 54) (* x r)) (* 6 (* s00 x)) (* (- 4) (* r00 s s)) (* 2 (* r00 s00 s00)) (* 6 (* x00 s)) (* (- 12) (* s00 s)) (* 2 (* r00 s00 s)) ?x618 (* (- 2) (* s s r)) (* (- 6) (* x s)) (* 4 (* s00 s00 r)) ?x1451 ?x1285 ?x1694 (* (- 2) (* s00 s r)) (* 36 (* r00 x00 r)) (* (- 54) (* r00 x)) ?x137 ?x270 (* 54 (* x00 r)) ?x1683 (* (- 24) (* s00 r)) (* 24 (* r00 s)) (* (- 36) (* r00 r00 x)))))
 (let ((?x451 (* (- 3) s)))
 (let ((?x44 (* 3 s00)))
 (let ((?x1603 (* 4 ?x543)))
 (let ((?x1647 (* 18 ?x474)))
 (let ((?x1565 (+ (* 9 (* s r)) ?x1647 (* (- 9) (* r00 s00)) (* (- 2) (* s s)) (* (- 18) (* x r)) (* (- 6) (* r00 s r)) (* 6 ?x435) ?x1603 (* (- 18) (* r00 x)) ?x44 (* (- 6) ?x560) (* 18 (* x00 r)) ?x451 (* (- 9) (* s00 r)) (* (- 2) (* s00 s)) (* 9 (* r00 s)) (* 6 (* r00 s00 r)))))
 (let ((?x421 (* r00 r00 r00)))
 (let ((?x422 (* 12 ?x421)))
 (let ((?x453 (* (- 6) x00)))
 (let ((?x56 (* 6 x)))
 (let ((?x452 (* (- 3) r00)))
 (let ((?x43 (* 3 r)))
 (let ((?x1576 (+ (* 2 (* s r)) (* (- 12) (* r00 r00 r)) ?x43 ?x44 ?x451 ?x452 (* 4 (* s00 r)) (* (- 6) (* r00 s00)) ?x56 ?x453 ?x422)))
 (let (($x504 (= (+ s00 ?x232 (* 3 (* r r)) ?x267) 0)))
 (let (($x1432 (and $x504 (= ?x1576 0) (= ?x1565 0) (= ?x1429 0) $x828 $x1701)))
 (let ((?x143 (* 9 s)))
 (let ((?x939 (* (- 9) s00)))
 (let ((?x868 (* (- 15) ?x543)))
 (let ((?x842 (* (- 36) ?x829)))
 (let ((?x758 (* 6 ?x757)))
 (let ((?x497 (* s s)))
 (let ((?x521 (* 3 ?x497)))
 (let ((?x503 (* (- 54) ?x474)))
 (let ((?x1419 (+ (* (- 24) (* s r)) ?x503 (* 36 (* r00 x r)) (* 24 (* r00 s00)) ?x521 (* 54 (* x r)) (* (- 6) (* s00 x)) (* 4 (* r00 s s)) (* (- 2) (* r00 s00 s00)) (* (- 6) (* x00 s)) (* 12 (* s00 s)) (* (- 2) (* r00 s00 s)) ?x758 (* 2 (* s s r)) (* 6 (* x s)) (* (- 4) (* s00 s00 r)) (* (- 36) ?x435) ?x842 ?x868 (* 2 (* s00 s r)) (* (- 36) (* r00 x00 r)) (* 54 (* r00 x)) ?x939 (* 36 ?x560) (* (- 54) (* x00 r)) ?x143 (* 24 (* s00 r)) (* (- 24) (* r00 s)) (* 36 (* r00 r00 x)))))
 (let ((?x47 (* 3 s)))
 (let ((?x330 (* (- 3) s00)))
 (let ((?x556 (* (- 4) ?x543)))
 (let ((?x498 (* 2 ?x497)))
 (let ((?x488 (* (- 18) ?x474)))
 (let ((?x1162 (+ (* (- 9) (* s r)) ?x488 (* 9 (* r00 s00)) ?x498 (* 18 (* x r)) (* 6 (* r00 s r)) (* (- 6) ?x435) ?x556 (* 18 (* r00 x)) ?x330 (* 6 ?x560) (* (- 18) (* x00 r)) ?x47 (* 9 (* s00 r)) (* 2 (* s00 s)) (* (- 9) (* r00 s)) (* (- 6) (* r00 s00 r)))))
 (let ((?x59 (* 6 x00)))
 (let ((?x48 (* 3 r00)))
 (let ((?x301 (* (- 3) r)))
 (let ((?x969 (+ (* (- 2) (* s r)) (* 12 (* r00 r00 r)) ?x301 ?x330 ?x47 ?x48 (* (- 4) (* s00 r)) (* 6 (* r00 s00)) (* (- 6) x) ?x59 (* (- 12) ?x421))))
 (let (($x636 (and $x504 (= ?x969 0) (= ?x1162 0) (= ?x1419 0) $x828 $x1701)))
 (rewrite (= $x636 $x1432))))))))))))))))))))))))))))))))))))))))))))))))))))))))))))))))))))))))
 ))
 (let (($x229 (exists ((r Int) (s Int) (x Int) )(! (let ((?x211 (* 6 r)))
 (let ((?x212 (+ s ?x211 3)))
 (let ((?x215 (+ r 1)))
 (let ((?x223 (+ (* ?x215 ?x215 ?x212 (- x s) (- x s)) (* (- x s) (- x s)) (* ?x215 ?x215 ?x212 ?x212 ?x212))))
 (let ((?x224 (* (- (+ (- s00 ?x212) (* 3 ?x215 ?x215)) (* 3 r00 r00)) ?x223)))
 (let ((?x143 (* 9 s)))
 (let ((?x139 (* 36 r00 r00 s00)))
 (let ((?x137 (* 9 s00)))
 (let ((?x123 (* 36 r00 r00 s)))
 (let ((?x157 (- (+ (* 216 r00 s00 x00) (* 108 r00 x00)) (* 54 r00 s00))))
 (let ((?x164 (- (- (+ ?x157 (* 15 s s)) (* 216 r00 r00 r00 s)) (* 36 r00 r00 s00 s00))))
 (let ((?x171 (- (+ (- ?x164 (* 4 s s s)) (* 108 x x)) (* 432 r00 r00 r00 x00))))
 (let ((?x176 (- (+ (- ?x171 (* 12 s s s00)) (* 108 s00 x)) (* 108 r00 s00 s00))))
 (let ((?x180 (+ ?x176 (* 216 r00 r00 r00 s00) (* 108 s x00) (* 432 r00 r00 r00 x))))
 (let ((?x188 (- (+ (- ?x180 (* 66 s s00)) (* 108 r00 s s00)) (* 108 s00 x00))))
 (let ((?x193 (+ (- ?x188 (* 216 r00 s00 x)) (* 36 r00 r00 s s) (* 16 s00 s00 s00))))
 (let ((?x200 (- (+ (- ?x193 (* 108 s x)) ?x123 (* 51 s00 s00)) (* 108 r00 x))))
 (let ((?x207 (- (+ (- (- (+ ?x200 ?x137) ?x139) ?x143) (* 54 r00 s)) (* 216 x x00))))
 (let ((?x105 (+ (- (* (- 24) r s) (* 54 r00 x00)) (* 36 r r00 x) (* 24 r00 s00) (* 3 s s) (* 54 r x))))
 (let ((?x112 (- (+ (- ?x105 (* 6 s00 x)) (* 4 r00 s s)) (* 2 r00 s00 s00))))
 (let ((?x117 (- (+ (- ?x112 (* 6 s x00)) (* 12 s s00)) (* 2 r00 s s00))))
 (let ((?x121 (+ ?x117 (* 6 s00 x00) (* 2 r s s) (* 6 s x))))
 (let ((?x129 (- (- (- ?x121 (* 4 r s00 s00)) ?x123) (* 36 r00 r00 x00))))
 (let ((?x134 (- (+ (- ?x129 (* 15 s00 s00)) (* 2 r s s00)) (* 36 r r00 x00))))
 (let ((?x142 (- (+ (- (+ ?x134 (* 54 r00 x)) ?x137) ?x139) (* 54 r x00))))
 (let ((?x149 (+ (- (+ ?x142 ?x143 (* 24 r s00)) (* 24 r00 s)) (* 36 r00 r00 x))))
 (let ((?x47 (* 3 s)))
 (let ((?x44 (* 3 s00)))
 (let ((?x74 (+ (- (* (- 9) r s) (* 18 r00 x00)) (* 9 r00 s00) (* 2 s s) (* 18 r x) (* 6 r r00 s))))
 (let ((?x80 (+ (- (- ?x74 (* 6 r00 r00 s)) (* 4 s00 s00)) (* 18 r00 x))))
 (let ((?x85 (- (+ (- ?x80 ?x44) (* 6 r00 r00 s00)) (* 18 r x00))))
 (let ((?x91 (- (+ ?x85 ?x47 (* 9 r s00) (* 2 s s00)) (* 9 r00 s))))
 (let ((?x59 (* 6 x00)))
 (let ((?x56 (* 6 x)))
 (let ((?x48 (* 3 r00)))
 (let ((?x43 (* 3 r)))
 (let ((?x46 (- (- (+ (* (- 2) r s) (* 12 r r00 r00)) ?x43) ?x44)))
 (let ((?x55 (+ (- (+ ?x46 ?x47 ?x48) (* 4 r s00)) (* 6 r00 s00))))
 (let (($x36 (= (- (+ (- s00 s) (* 3 r r)) (* 3 r00 r00)) 0)))
 (and $x36 (= (- (+ (- ?x55 ?x56) ?x59) (* 12 r00 r00 r00)) 0) (= (- ?x91 (* 6 r r00 s00)) 0) (= ?x149 0) (= (+ ?x207 (* 108 x00 x00)) 0) (or (not (= ?x224 0))))))))))))))))))))))))))))))))))))))))))) :qid k!35))
 ))
 (let ((?x803 (lambda ((r Int) (s Int) (x Int) )(let ((?x253 (* r00 r00)))
 (let ((?x267 (* (- 3) ?x253)))
 (let ((?x232 (* (- 1) s)))
 (let ((?x1549 (+ (- 3) s00 ?x232 (* (- 6) r) (* 3 (* (+ 1 r) (+ 1 r))) ?x267)))
 (let ((?x211 (* 6 r)))
 (let ((?x924 (+ 3 s ?x211)))
 (let ((?x1368 (+ 1 r)))
 (let ((?x1654 (+ (* ?x1368 ?x1368 (+ x ?x232) (+ x ?x232) ?x924) (* (+ x ?x232) (+ x ?x232)) (* ?x1368 ?x1368 ?x924 ?x924 ?x924))))
 (let (($x1701 (not (= (* ?x1654 ?x1549) 0))))
 (let ((?x1298 (* x00 x00)))
 (let ((?x770 (* 108 ?x1298)))
 (let ((?x1683 (* (- 9) s)))
 (let ((?x560 (* r00 r00 s00)))
 (let ((?x270 (* (- 36) ?x560)))
 (let ((?x137 (* 9 s00)))
 (let ((?x543 (* s00 s00)))
 (let ((?x585 (* 51 ?x543)))
 (let ((?x435 (* r00 r00 s)))
 (let ((?x1451 (* 36 ?x435)))
 (let ((?x1136 (* s00 s00 s00)))
 (let ((?x1061 (* 16 ?x1136)))
 (let ((?x757 (* s00 x00)))
 (let ((?x1390 (* (- 108) ?x757)))
 (let ((?x834 (* r00 r00 r00 x00)))
 (let ((?x1587 (* (- 432) ?x834)))
 (let ((?x474 (* r00 x00)))
 (let ((?x331 (* 108 ?x474)))
 (let ((?x808 (+ (* 216 (* r00 s00 x00)) ?x331 (* (- 54) (* r00 s00)) (* 15 (* s s)) (* (- 216) (* r00 r00 r00 s)) (* (- 36) (* r00 r00 s00 s00)) (* (- 4) (* s s s)) (* 108 (* x x)) ?x1587 (* (- 12) (* s00 s s)) (* 108 (* s00 x)) (* (- 108) (* r00 s00 s00)) (* 216 (* r00 r00 r00 s00)) (* 108 (* x00 s)) (* 432 (* r00 r00 r00 x)) (* (- 66) (* s00 s)) (* 108 (* r00 s00 s)) ?x1390 (* (- 216) (* r00 s00 x)) (* 36 (* r00 r00 s s)) ?x1061 (* (- 108) (* x s)) ?x1451 ?x585 (* (- 108) (* r00 x)) ?x137 ?x270 ?x1683 (* 54 (* r00 s)) (* (- 216) (* x00 x)) ?x770)))
 (let (($x828 (= ?x808 0)))
 (let ((?x143 (* 9 s)))
 (let ((?x939 (* (- 9) s00)))
 (let ((?x868 (* (- 15) ?x543)))
 (let ((?x829 (* r00 r00 x00)))
 (let ((?x842 (* (- 36) ?x829)))
 (let ((?x758 (* 6 ?x757)))
 (let ((?x497 (* s s)))
 (let ((?x521 (* 3 ?x497)))
 (let ((?x503 (* (- 54) ?x474)))
 (let ((?x1419 (+ (* (- 24) (* s r)) ?x503 (* 36 (* r00 x r)) (* 24 (* r00 s00)) ?x521 (* 54 (* x r)) (* (- 6) (* s00 x)) (* 4 (* r00 s s)) (* (- 2) (* r00 s00 s00)) (* (- 6) (* x00 s)) (* 12 (* s00 s)) (* (- 2) (* r00 s00 s)) ?x758 (* 2 (* s s r)) (* 6 (* x s)) (* (- 4) (* s00 s00 r)) (* (- 36) ?x435) ?x842 ?x868 (* 2 (* s00 s r)) (* (- 36) (* r00 x00 r)) (* 54 (* r00 x)) ?x939 (* 36 ?x560) (* (- 54) (* x00 r)) ?x143 (* 24 (* s00 r)) (* (- 24) (* r00 s)) (* 36 (* r00 r00 x)))))
 (let ((?x47 (* 3 s)))
 (let ((?x330 (* (- 3) s00)))
 (let ((?x556 (* (- 4) ?x543)))
 (let ((?x498 (* 2 ?x497)))
 (let ((?x488 (* (- 18) ?x474)))
 (let ((?x1162 (+ (* (- 9) (* s r)) ?x488 (* 9 (* r00 s00)) ?x498 (* 18 (* x r)) (* 6 (* r00 s r)) (* (- 6) ?x435) ?x556 (* 18 (* r00 x)) ?x330 (* 6 ?x560) (* (- 18) (* x00 r)) ?x47 (* 9 (* s00 r)) (* 2 (* s00 s)) (* (- 9) (* r00 s)) (* (- 6) (* r00 s00 r)))))
 (let ((?x59 (* 6 x00)))
 (let ((?x48 (* 3 r00)))
 (let ((?x301 (* (- 3) r)))
 (let ((?x969 (+ (* (- 2) (* s r)) (* 12 (* r00 r00 r)) ?x301 ?x330 ?x47 ?x48 (* (- 4) (* s00 r)) (* 6 (* r00 s00)) (* (- 6) x) ?x59 (* (- 12) (* r00 r00 r00)))))
 (let (($x504 (= (+ s00 ?x232 (* 3 (* r r)) ?x267) 0)))
 (let (($x636 (and $x504 (= ?x969 0) (= ?x1162 0) (= ?x1419 0) $x828 $x1701)))
 (let ((?x212 (+ s ?x211 3)))
 (let ((?x215 (+ r 1)))
 (let ((?x223 (+ (* ?x215 ?x215 ?x212 (- x s) (- x s)) (* (- x s) (- x s)) (* ?x215 ?x215 ?x212 ?x212 ?x212))))
 (let ((?x224 (* (- (+ (- s00 ?x212) (* 3 ?x215 ?x215)) (* 3 r00 r00)) ?x223)))
 (let ((?x139 (* 36 r00 r00 s00)))
 (let ((?x123 (* 36 r00 r00 s)))
 (let ((?x157 (- (+ (* 216 r00 s00 x00) (* 108 r00 x00)) (* 54 r00 s00))))
 (let ((?x164 (- (- (+ ?x157 (* 15 s s)) (* 216 r00 r00 r00 s)) (* 36 r00 r00 s00 s00))))
 (let ((?x171 (- (+ (- ?x164 (* 4 s s s)) (* 108 x x)) (* 432 r00 r00 r00 x00))))
 (let ((?x176 (- (+ (- ?x171 (* 12 s s s00)) (* 108 s00 x)) (* 108 r00 s00 s00))))
 (let ((?x180 (+ ?x176 (* 216 r00 r00 r00 s00) (* 108 s x00) (* 432 r00 r00 r00 x))))
 (let ((?x188 (- (+ (- ?x180 (* 66 s s00)) (* 108 r00 s s00)) (* 108 s00 x00))))
 (let ((?x193 (+ (- ?x188 (* 216 r00 s00 x)) (* 36 r00 r00 s s) (* 16 s00 s00 s00))))
 (let ((?x200 (- (+ (- ?x193 (* 108 s x)) ?x123 (* 51 s00 s00)) (* 108 r00 x))))
 (let ((?x207 (- (+ (- (- (+ ?x200 ?x137) ?x139) ?x143) (* 54 r00 s)) (* 216 x x00))))
 (let ((?x105 (+ (- (* (- 24) r s) (* 54 r00 x00)) (* 36 r r00 x) (* 24 r00 s00) (* 3 s s) (* 54 r x))))
 (let ((?x112 (- (+ (- ?x105 (* 6 s00 x)) (* 4 r00 s s)) (* 2 r00 s00 s00))))
 (let ((?x117 (- (+ (- ?x112 (* 6 s x00)) (* 12 s s00)) (* 2 r00 s s00))))
 (let ((?x121 (+ ?x117 (* 6 s00 x00) (* 2 r s s) (* 6 s x))))
 (let ((?x129 (- (- (- ?x121 (* 4 r s00 s00)) ?x123) (* 36 r00 r00 x00))))
 (let ((?x134 (- (+ (- ?x129 (* 15 s00 s00)) (* 2 r s s00)) (* 36 r r00 x00))))
 (let ((?x142 (- (+ (- (+ ?x134 (* 54 r00 x)) ?x137) ?x139) (* 54 r x00))))
 (let ((?x149 (+ (- (+ ?x142 ?x143 (* 24 r s00)) (* 24 r00 s)) (* 36 r00 r00 x))))
 (let ((?x44 (* 3 s00)))
 (let ((?x74 (+ (- (* (- 9) r s) (* 18 r00 x00)) (* 9 r00 s00) (* 2 s s) (* 18 r x) (* 6 r r00 s))))
 (let ((?x80 (+ (- (- ?x74 (* 6 r00 r00 s)) (* 4 s00 s00)) (* 18 r00 x))))
 (let ((?x85 (- (+ (- ?x80 ?x44) (* 6 r00 r00 s00)) (* 18 r x00))))
 (let ((?x91 (- (+ ?x85 ?x47 (* 9 r s00) (* 2 s s00)) (* 9 r00 s))))
 (let ((?x56 (* 6 x)))
 (let ((?x43 (* 3 r)))
 (let ((?x46 (- (- (+ (* (- 2) r s) (* 12 r r00 r00)) ?x43) ?x44)))
 (let ((?x55 (+ (- (+ ?x46 ?x47 ?x48) (* 4 r s00)) (* 6 r00 s00))))
 (let (($x36 (= (- (+ (- s00 s) (* 3 r r)) (* 3 r00 r00)) 0)))
 (let (($x228 (and $x36 (= (- (+ (- ?x55 ?x56) ?x59) (* 12 r00 r00 r00)) 0) (= (- ?x91 (* 6 r r00 s00)) 0) (= ?x149 0) (= (+ ?x207 (* 108 x00 x00)) 0) (or (not (= ?x224 0))))))
 (rewrite (= $x228 $x636))))))))))))))))))))))))))))))))))))))))))))))))))))))))))))))))))))))))))))))))))))))))
 ))
 (let ((@x230 (asserted $x229)))
 (let ((@x1633 (mp (mp @x230 (quant-intro (proof-bind ?x803) (= $x229 $x940)) $x940) (rewrite (= $x940 $x940)) $x940)))
 (let ((@x1564 (mp (mp @x1633 (quant-intro (proof-bind ?x1431) (= $x940 $x1591)) $x1591) (quant-intro (proof-bind ?x631) (= $x1591 $x630)) $x630)))
 (let ((@x1536 (mp (mp~ @x1564 (sk (~ $x630 $x525)) $x525) (rewrite (= $x525 $x817)) $x817)))
 (let ((@x277 (and-elim @x1536 $x544)))
 (let ((@x909 (unit-resolution ((_ th-lemma arith triangle-eq) (or (not $x544) $x468)) @x277 $x468)))
 (let (($x1619 (>= ?x533 0)))
 (let ((@x748 (unit-resolution ((_ th-lemma arith triangle-eq) (or (not $x544) $x1619)) @x277 $x1619)))
 (let (($x1521 (not (<= ?x809 0))))
 (let (($x675 (>= ?x809 0)))
 (let ((@x724 (unit-resolution ((_ th-lemma arith triangle-eq) (or $x1212 $x1521 (not $x675))) (and-elim @x1536 $x275) (or $x1521 (not $x675)))))
 (let ((@x679 (unit-resolution @x724 (lemma ((_ th-lemma arith farkas 1 1 1) (hypothesis (not $x675)) @x748 @x909 false) $x675) $x1521)))
 ((_ th-lemma arith farkas 1 1 1) @x679 @x748 @x909 false))))))))))))))))))))))))))))))))))))))))))))))))))))))))))))))))))))))))))))))))))))))))))))))))))))))))))))))))))))))))

(:added-eqs                 5
 :arith-assert-diseq        1
 :arith-assert-lower        9
 :arith-assert-upper        8
 :arith-conflicts           2
 :arith-eq-adapter          6
 :arith-num-rows            8
 :arith-pseudo-nonlinear    2
 :arith-tableau-max-columns 113
 :arith-tableau-max-rows    8
 :conflicts                 2
 :decisions                 1
 :del-clause                17
 :max-memory                3.93
 :memory                    3.33
 :mk-bool-var               24
 :mk-clause                 19
 :num-allocs                1297880
 :num-checks                1
 :propagations              12
 :rlimit-count              7875
 :time                      0.01
 :total-time                0.02)
